unknown
(model
; cardinality of BoundSet is 3
(declare-sort BoundSet 0)
; rep: @uc_BoundSet_0
; rep: @uc_BoundSet_1
; rep: @uc_BoundSet_2
(declare-sort UnboundSet 0)
(define-fun IsInParade ((BOUND_VARIABLE_455 BoundSet)) Bool true)
(define-fun IsPink ((BOUND_VARIABLE_455 BoundSet)) Bool true)
(define-fun IsMarching ((BOUND_VARIABLE_455 BoundSet)) Bool true)
(define-fun IsMarchingBy ((BOUND_VARIABLE_455 BoundSet)) Bool false)
(define-fun IsInSameColor ((BOUND_VARIABLE_455 BoundSet)) Bool false)
)
